<instance format="XCSP3" type="CSP">
  <variables>
    <var id="x0"> 1 4 5 12 14 </var>
    <var id="x1"> 1 4 9 11 12 14 </var>
    <var id="x2"> 5 9 11 14 </var>
    <var id="x3"> 1 5 11 12 </var>
    <var id="x4"> 4 5 11 14 </var>
    <var id="x5"> 1 4 11 12 </var>
    <var id="x6"> 1 4 12 14 </var>
    <var id="x7"> 1 4 9 13 </var>
    <var id="x8"> 1 8 11 13 </var>
    <var id="x9"> 0 1 4 </var>
    <var id="x10"> 1 4 8 9 11 </var>
    <var id="x11"> 1 8 11 </var>
    <var id="x12"> 0 4 11 </var>
    <var id="x13"> 0 8 9 11 13 </var>
    <var id="x14"> 1 10 </var>
    <var id="x15"> 1 8 11 </var>
    <var id="x16"> 1 3 8 </var>
    <var id="x17"> 2 11 13 </var>
    <var id="x18"> 3 8 10 11 13 </var>
    <var id="x19"> 1 3 8 10 11 </var>
    <var id="x20"> 1 2 8 </var>
    <var id="x21"> 1 4 9 12 </var>
    <var id="x22"> 1 11 12 </var>
    <var id="x23"> 1 4 9 12 </var>
    <var id="x24"> 2 4 11 </var>
    <var id="x25"> 2 9 11 </var>
    <var id="x26"> 10 11 </var>
    <var id="x27"> 1 11 12 </var>
    <var id="x28"> 11 12 </var>
    <var id="x29"> 4 5 12 14 </var>
    <var id="x30"> 3..5 12 </var>
    <var id="x31"> 2..5 11 14 </var>
    <var id="x32"> 2 5 11 14 </var>
    <var id="x33"> 3..5 11 14 </var>
    <var id="x34"> 2..4 11 12 </var>
    <var id="x35"> 1 13 14 </var>
    <var id="x36"> 6 </var>
    <var id="x37"> 1 5 8 </var>
    <var id="x38"> 0 5 14 </var>
    <var id="x39"> 0 5 14 </var>
    <var id="x40"> 0 6 8 13 14 </var>
    <var id="x41"> 0 1 6 8 14 </var>
    <var id="x42"> 4 6 11 12 </var>
    <var id="x43"> 6 8 11 12 </var>
    <var id="x44"> 4 8 11 12 14 </var>
    <var id="x45"> 4 5 8 12 </var>
    <var id="x46"> 4 5 11 14 </var>
    <var id="x47"> 5 8 11 </var>
    <var id="x48"> 4 8 12 14 </var>
    <var id="x49"> 7 8 12 </var>
    <var id="x50"> 3 8 12 </var>
    <var id="x51"> 2 3 14 </var>
    <var id="x52"> 3 8 10 12 </var>
    <var id="x53"> 3 10 14 </var>
    <var id="x54"> 2 3 12 </var>
    <var id="x55"> 2 7 8 12 14 </var>
    <var id="x56"> 4 7 12 </var>
    <var id="x57"> 7 12 13 </var>
    <var id="x58"> 0 4 12 14 </var>
    <var id="x59"> 0 7 9 13 14 </var>
    <var id="x60"> 0 4 14 </var>
    <var id="x61"> 0 9 13 14 </var>
    <var id="x62"> 4 7 12 14 </var>
    <var id="x63"> 1 12 14 </var>
    <var id="x64"> 3 11 12 </var>
    <var id="x65"> 1 8 11 12 14 </var>
    <var id="x66"> 5 11 14 </var>
    <var id="x67"> 3 5 8 11 </var>
    <var id="x68"> 1 8 12 14 </var>
    <var as="x65" id="x69"/>
    <var id="x70"> 8 9 11 12 </var>
    <var id="x71"> 5 11 </var>
    <var id="x72"> 5 7 9 11 </var>
    <var id="x73"> 5 8 11 12 </var>
    <var id="x74"> 6 11 12 </var>
    <var id="x75"> 6 8 9 11 </var>
    <var id="x76"> 6 8 11 12 </var>
    <var id="x77"> 4 7 12 </var>
    <var id="x78"> 2 4 7 11 12 </var>
    <var id="x79"> 7 8 11 12 </var>
    <var id="x80"> 4 8 12 </var>
    <var id="x81"> 8 11 12 </var>
    <var id="x82"> 0 8 11 </var>
    <var id="x83"> 0 8 11 12 </var>
    <var id="x84"> 1 7 13 14 </var>
    <var id="x85"> 1 14 </var>
    <var id="x86"> 1 11 14 </var>
    <var id="x87"> 3 11 14 </var>
    <var id="x88"> 3 7 11 13 </var>
    <var id="x89"> 1 3 6 11 </var>
    <var id="x90"> 1 7 14 </var>
    <var id="x91"> 3 4 7 11 </var>
    <var id="x92"> 0 1 4 14 </var>
    <var id="x93"> 3 7 11 </var>
    <var id="x94"> 1 3 11 </var>
    <var id="x95"> 1 3 4 11 </var>
    <var id="x96"> 0 11 14 </var>
    <var id="x97"> 0 1 11 14 </var>
    <var id="x98"> 1 4 12 </var>
    <var id="x99"> 3 4 6 12 </var>
    <var id="x100"> 0 5 </var>
    <var id="x101"> 3 5 10 </var>
    <var id="x102"> 0 3..5 10 </var>
    <var id="x103"> 1 3 4 6 12 </var>
    <var id="x104"> 0 6 </var>
    <var id="x105"> 0 1 6 12 </var>
  </variables>
  <constraints>
    <group>
      <allDifferent> %... </allDifferent>
      <args> x0 x1 x2 x3 x4 x5 x6 </args>
      <args> x7 x8 x9 x10 x11 x12 x13 </args>
      <args> x14 x15 x16 x17 x18 x19 x20 </args>
      <args> x21 x22 x23 x24 x25 x26 x27 </args>
      <args> x28 x29 x30 x31 x32 x33 x34 </args>
      <args> x35 x36 x37 x38 x39 x40 x41 </args>
      <args> x42 x43 x44 x45 x46 x47 x48 </args>
      <args> x49 x50 x51 x52 x53 x54 x55 </args>
      <args> x56 x57 x58 x59 x60 x61 x62 </args>
      <args> x63 x64 x65 x66 x67 x68 x69 </args>
      <args> x70 x71 x72 x73 x74 x75 x76 </args>
      <args> x77 x78 x79 x80 x81 x82 x83 </args>
      <args> x84 x85 x86 x87 x88 x89 x90 </args>
      <args> x91 x92 x93 x94 x95 x96 x97 </args>
      <args> x98 x99 x100 x101 x102 x103 x104 x105 </args>
      <args> x7 x21 x35 x63 x77 x84 x98 </args>
      <args> x36 x42 x56 x64 x78 x91 x99 </args>
      <args> x8 x22 x28 x43 x49 x57 x79 </args>
      <args> x0 x9 x14 x29 x58 x85 x92 </args>
      <args> x1 x10 x15 x44 x65 x70 x86 </args>
      <args> x16 x23 x30 x37 x45 x50 x80 </args>
      <args> x24 x31 x38 x46 x51 x71 x87 </args>
      <args> x2 x17 x25 x32 x59 x66 x72 x100 </args>
      <args> x18 x26 x47 x67 x88 x93 x101 </args>
      <args> x3 x11 x19 x52 x73 x81 x94 </args>
      <args> x4 x12 x33 x39 x53 x60 x102 </args>
      <args> x5 x34 x54 x74 x89 x95 x103 </args>
      <args> x13 x40 x61 x75 x82 x96 x104 </args>
      <args> x6 x20 x48 x55 x62 x68 x90 </args>
      <args> x27 x41 x69 x76 x83 x97 x105 </args>
    </group>
  </constraints>
</instance>

